Route #1: 46 4 14 50 11 20 7
Route #2: 60 3 57 30 61 62
Route #3: 53 40 44 42 39
Route #4: 19 35 49 1 36 6 34 64
Route #5: 65 37 23 8 32 51
Route #6: 27 24 59 29 10 38
Route #7: 17 43 16 41 66 2 26 47
Route #8: 33 18 31 45 52 22 12 58
Route #9: 13 54 55 15 56 28
Route #10: 9 48 25 21 63 5
Cost 1091